benchmark_instances/dzn_benchmark_instances/benchmark_instance_13-3.dzn
% Input: sequence of points
seq_points = [|2,1
              |8,1
              |9,1
              |10,1
              |11,1
              |12,1
              |6,2
              |8,2
              |10,2
              |12,2
              |1,3
              |3,3
              |4,3
              |6,3
              |10,4
              |12,4
              |2,5
              |3,5
              |4,5
              |12,5
              |2,6
              |8,6
              |10,6
              |12,6
              |2,7
              |4,7
              |10,7
              |12,7
              |7,8
              |8,8
              |9,8
              |10,8
              |11,8
              |5,9
              |7,9
              |2,10
              |5,10
              |7,10
              |8,10
              |9,10
              |1,11
              |2,11
              |3,11
              |4,11
              |5,11
              |6,11
              |7,11
              |8,11
              |1,12
              |2,12
              |3,12
              |7,12
              |8,12
              |10,12
              |11,12
              |2,0
              |9,0
              |11,0
              |13,0
              |13,5
              |13,6
              |13,8
              |5,13
              |6,13
              |7,13
              |8,13
              |10,13
              |0,5
              |0,6
              |0,10
              |0,12
              |0,13
              |0,0
              |1,0
             |];

num_points = 74;
