benchmark_instances/lp_benchmark_instances/benchmark_instance_13-3.lp
% Input: sequence of points
point(2,1).
point(8,1).
point(9,1).
point(10,1).
point(11,1).
point(12,1).
point(6,2).
point(8,2).
point(10,2).
point(12,2).
point(1,3).
point(3,3).
point(4,3).
point(6,3).
point(10,4).
point(12,4).
point(2,5).
point(3,5).
point(4,5).
point(12,5).
point(2,6).
point(8,6).
point(10,6).
point(12,6).
point(2,7).
point(4,7).
point(10,7).
point(12,7).
point(7,8).
point(8,8).
point(9,8).
point(10,8).
point(11,8).
point(5,9).
point(7,9).
point(2,10).
point(5,10).
point(7,10).
point(8,10).
point(9,10).
point(1,11).
point(2,11).
point(3,11).
point(4,11).
point(5,11).
point(6,11).
point(7,11).
point(8,11).
point(1,12).
point(2,12).
point(3,12).
point(7,12).
point(8,12).
point(10,12).
point(11,12).
point(2,0).
point(9,0).
point(11,0).
point(13,0).
point(13,5).
point(13,6).
point(13,8).
point(5,13).
point(6,13).
point(7,13).
point(8,13).
point(10,13).
point(0,5).
point(0,6).
point(0,10).
point(0,12).
point(0,13).
point(0,0).
point(1,0).
